33D32945 STP File, STP Format Version 1.0

SECTION Comments
Name "cube_n13_d2_s44"
Problem "Euclidean Steiner Tree Problem"
Remark "Generated with STPGenerator. 2 dimensions."
END

SECTION Graph
Nodes 13
END

SECTION Coordinates
DD 0 0.7497371406 0.6546126439
DD 1 0.7923043043 0.0619196091
DD 2 0.0727788904 0.1874291036
DD 3 0.8574096602 0.9521014504
DD 4 0.4074837125 0.1925271313
DD 5 0.3823489777 0.5831195775
DD 6 0.1180090462 0.7377023845
DD 7 0.5829005281 0.1765204129
DD 8 0.4433295240 0.5713405118
DD 9 0.4465203399 0.0654066005
DD 10 0.1171411286 0.3212535252
DD 11 0.8584552788 0.7502715582
DD 12 0.0250844127 0.5121703011
END
